[432, 408, 376, 376, 330, 280, 280, 240, 232, 216, 174, 138, 168, 132, 132, 114, 94, 84, 80, 84, 86, 82, 82, 80, 76, 66, 70, 66, 68, 68, 66, 68, 66, 64, 66, 66, 66, 66, 66, 66, 68, 72, 72, 66, 66, 66, 66, 66, 66, 66, 66, 66, 66, 66, 66, 66, 66, 66, 66, 72, 72, 64, 64, 64, 64, 66, 66, 66, 66, 64, 64, 66, 66, 66, 66, 66, 66, 66, 66, 64, 66, 66, 64, 64, 64, 64, 68, 66, 66, 64, 66, 64, 64, 64, 66, 66, 66, 68, 68, 66, 68, 68, 68, 68, 64, 70, 66, 66, 66, 66, 66, 66, 68, 66, 66, 66, 66, 66, 66, 66, 66, 68, 68, 68, 68, 68, 64, 66, 66, 66, 66, 66, 66, 66, 66, 66, 66, 66, 66, 66, 66, 66, 66, 66, 66, 66, 66, 66, 64, 64, 64, 66, 66, 66, 66, 66, 66, 66, 66, 66, 66, 64, 68, 66, 66, 66, 66, 66, 66, 64, 64, 66, 66, 66, 66, 66, 64, 66, 66, 72, 72, 68, 66, 64, 66, 66, 66, 66, 66, 66, 66, 66, 66, 68, 66, 66, 66, 66, 66, 66]